Optimal - objective value 1494.00000000
      2 x0_2                   1                      23
     20 x0_20                  1                      50
     22 x0_22                  1                      29
     29 x0_29                  1                      17
     39 x1_9                   1         96.7733333333334
     41 x1_11                  1         107.466666666667
     44 x1_14                  1         115.186666666667
     47 x1_17                  1                       0
     51 x1_21                  1         103.306666666667
     55 x1_25                  1                  100.12
     61 x2_1                   1                      59
     67 x2_7                   1                      22
     76 x2_16                  1                     104
     78 x2_18                  1                       0
     90 x3_0                   1                       0
     96 x3_6                   1         104.231578947368
    109 x3_19                  1         106.957894736842
    123 x4_3                   1         106.416296296296
    125 x4_5                   1         106.653333333333
    128 x4_8                   1         106.005925925926
    144 x4_24                  1         106.416296296296
    154 x5_4                   1                   107.8
    160 x5_10                  1                       0
    165 x5_15                  1                       0
    173 x5_23                  1                   107.8
    176 x5_26                  1                   108.8
    192 x6_12                  1         101.305263157895
    193 x6_13                  1         103.494736842105
    207 x6_27                  1         101.305263157895
    208 x6_28                  1                       0
